1674
3
75, 105, 7, 101, 47, 95, 61, 35, 97, 83, 107, 104, 133, 25, 38, 35, 127, 1, 114, 56, 140, 98, 122, 61, 110, 109, 46, 6, 59, 65, 142, 129, 56, 43, 95, 142, 26, 139
51, 96, 25, 21, 97, 66, 15, 51, 43, 21, 68, 66, 35, 50, 64, 78, 15, 24, 75, 14, 52, 98, 18, 54, 31, 55, 50, 40, 82, 16, 44, 59, 95, 87, 66, 64, 59, 16
3, 1, 1, 3, 3, 3, 3, 3, 3, 1, 1, 1, 2, 3, 3, 2, 3, 3, 3, 1, 2, 3, 3, 1, 2, 1, 2, 3, 2, 2, 1, 2, 1, 1, 3, 3, 3, 1